(set-logic HORN)
(set-info :source |
    Benchmark: C_VC
    Output by Princess (http://www.philipp.ruemmer.org/princess.shtml)
|)
(set-info :status sat)
(declare-fun inv_main2 () Bool)
(declare-fun inv_main4 (Int) Bool)
(declare-fun inv_main5 (Int) Bool)
(assert inv_main2)
(assert (forall ((var0 Int)) (or (not (and (inv_main4 var0) (not (<= 0 (+ (+ 268435455 (* (- 1) var0)) (- 1)))))) (inv_main5 var0))))
(assert (forall ((var0 Int)) (or (not (and (inv_main4 var0) (<= 0 (+ (+ 268435455 (* (- 1) var0)) (- 1))))) (inv_main4 (+ var0 1)))))
(assert (forall ((var0 Int)) (or (not (and inv_main2 (<= 0 var0))) (inv_main4 var0))))
(assert (forall ((var0 Int)) (not (and (inv_main5 var0) (not (<= 0 (+ var0 (- 268435455))))))))
(check-sat)
